\ Model PD-Stages_copy
\ LP format - for model browsing. Use MPS format to capture full model detail.
Minimize
 
Subject To
 R20: uigtd[101,3,1,0] + uigtd[101,3,1,1] + uigtd[101,3,1,2]
   + uigtd[101,3,2,0] + uigtd[101,3,2,1] + uigtd[101,3,2,2]
   + uigtd[101,3,3,0] + uigtd[101,3,3,1] + uigtd[101,3,3,2]
   + uigtd[102,3,1,0] + uigtd[102,3,1,1] + uigtd[102,3,1,2]
   + uigtd[102,3,2,0] + uigtd[102,3,2,1] + uigtd[102,3,2,2]
   + uigtd[102,3,3,0] + uigtd[102,3,3,1] + uigtd[102,3,3,2]
   + uigtd[203,3,1,0] + uigtd[203,3,1,1] + uigtd[203,3,1,2]
   + uigtd[203,3,2,0] + uigtd[203,3,2,1] + uigtd[203,3,2,2]
   + uigtd[203,3,3,0] + uigtd[203,3,3,1] + uigtd[203,3,3,2]
   + uigtd[303,3,1,0] + uigtd[303,3,1,1] + uigtd[303,3,1,2]
   + uigtd[303,3,2,0] + uigtd[303,3,2,1] + uigtd[303,3,2,2]
   + uigtd[303,3,3,0] + uigtd[303,3,3,1] + uigtd[303,3,3,2] = 1
 R2456: 100000 uigtd[101,3,1,0] + 100000 uigtd[102,3,1,0]
   + 100000 uigtd[203,3,1,0] + 100000 uigtd[303,3,1,0]
   + 0.3333333333333333 pLigtd[101,3,1,0]
   + 0.3333333333333333 pLigtd[102,3,1,0]
   + 0.3333333333333333 pLigtd[203,3,1,0]
   + 0.3333333333333333 pLigtd[303,3,1,0]
   + 0.3333333333333333 pRigtd[101,3,1,0]
   + 0.3333333333333333 pRigtd[102,3,1,0]
   + 0.3333333333333333 pRigtd[203,3,1,0]
   + 0.3333333333333333 pRigtd[303,3,1,0]
   + 0.3333333333333333 pigjg[101,102,3]
   + 0.3333333333333333 pigjg[101,203,3]
   + 0.3333333333333333 pigjg[101,303,3]
   + 0.3333333333333333 pigjg[102,101,3]
   + 0.3333333333333333 pigjg[102,203,3]
   + 0.3333333333333333 pigjg[102,303,3]
   + 0.3333333333333333 pigjg[203,101,3]
   + 0.3333333333333333 pigjg[203,102,3]
   + 0.3333333333333333 pigjg[203,303,3]
   + 0.3333333333333333 pigjg[303,101,3]
   + 0.3333333333333333 pigjg[303,102,3]
   + 0.3333333333333333 pigjg[303,203,3] - zetat[1]
   + 0.8953588999703285 pig[101,3] + 1.629567242678667 pig[102,3]
   + 1.220963874863748 pig[203,3] + 1.238385630399484 pig[303,3] <= 100000
 R2457: 100000 uigtd[101,3,1,1] + 100000 uigtd[102,3,1,1]
   + 100000 uigtd[203,3,1,1] + 100000 uigtd[303,3,1,1]
   + 0.3333333333333333 pLigtd[101,3,1,1]
   + 0.3333333333333333 pLigtd[102,3,1,1]
   + 0.3333333333333333 pLigtd[203,3,1,1]
   + 0.3333333333333333 pLigtd[303,3,1,1]
   + 0.3333333333333333 pRigtd[101,3,1,1]
   + 0.3333333333333333 pRigtd[102,3,1,1]
   + 0.3333333333333333 pRigtd[203,3,1,1]
   + 0.3333333333333333 pRigtd[303,3,1,1]
   + 0.3333333333333333 pigjg[101,102,3]
   + 0.3333333333333333 pigjg[101,203,3]
   + 0.3333333333333333 pigjg[101,303,3]
   + 0.3333333333333333 pigjg[102,101,3]
   + 0.3333333333333333 pigjg[102,203,3]
   + 0.3333333333333333 pigjg[102,303,3]
   + 0.3333333333333333 pigjg[203,101,3]
   + 0.3333333333333333 pigjg[203,102,3]
   + 0.3333333333333333 pigjg[203,303,3]
   + 0.3333333333333333 pigjg[303,101,3]
   + 0.3333333333333333 pigjg[303,102,3]
   + 0.3333333333333333 pigjg[303,203,3] - zetat[1]
   + 0.8953588999703285 pig[101,3] + 1.629567242678667 pig[102,3]
   + 1.220963874863748 pig[203,3] + 1.238385630399484 pig[303,3] <= 100000
 R2458: 100000 uigtd[101,3,1,2] + 100000 uigtd[102,3,1,2]
   + 100000 uigtd[203,3,1,2] + 100000 uigtd[303,3,1,2]
   + 0.3333333333333333 pLigtd[101,3,1,2]
   + 0.3333333333333333 pLigtd[102,3,1,2]
   + 0.3333333333333333 pLigtd[203,3,1,2]
   + 0.3333333333333333 pLigtd[303,3,1,2]
   + 0.3333333333333333 pRigtd[101,3,1,2]
   + 0.3333333333333333 pRigtd[102,3,1,2]
   + 0.3333333333333333 pRigtd[203,3,1,2]
   + 0.3333333333333333 pRigtd[303,3,1,2]
   + 0.3333333333333333 pigjg[101,102,3]
   + 0.3333333333333333 pigjg[101,203,3]
   + 0.3333333333333333 pigjg[101,303,3]
   + 0.3333333333333333 pigjg[102,101,3]
   + 0.3333333333333333 pigjg[102,203,3]
   + 0.3333333333333333 pigjg[102,303,3]
   + 0.3333333333333333 pigjg[203,101,3]
   + 0.3333333333333333 pigjg[203,102,3]
   + 0.3333333333333333 pigjg[203,303,3]
   + 0.3333333333333333 pigjg[303,101,3]
   + 0.3333333333333333 pigjg[303,102,3]
   + 0.3333333333333333 pigjg[303,203,3] - zetat[1]
   + 0.8953588999703285 pig[101,3] + 1.629567242678667 pig[102,3]
   + 1.220963874863748 pig[203,3] + 1.238385630399484 pig[303,3] <= 100000
 R2465: 100000 uigtd[101,3,2,0] + 100000 uigtd[102,3,2,0]
   + 100000 uigtd[203,3,2,0] + 100000 uigtd[303,3,2,0]
   + 0.3333333333333333 pLigtd[101,3,2,0]
   + 0.3333333333333333 pLigtd[102,3,2,0]
   + 0.3333333333333333 pLigtd[203,3,2,0]
   + 0.3333333333333333 pLigtd[303,3,2,0]
   + 0.3333333333333333 pRigtd[101,3,2,0]
   + 0.3333333333333333 pRigtd[102,3,2,0]
   + 0.3333333333333333 pRigtd[203,3,2,0]
   + 0.3333333333333333 pRigtd[303,3,2,0]
   + 0.3333333333333333 pigjg[101,102,3]
   + 0.3333333333333333 pigjg[101,203,3]
   + 0.3333333333333333 pigjg[101,303,3]
   + 0.3333333333333333 pigjg[102,101,3]
   + 0.3333333333333333 pigjg[102,203,3]
   + 0.3333333333333333 pigjg[102,303,3]
   + 0.3333333333333333 pigjg[203,101,3]
   + 0.3333333333333333 pigjg[203,102,3]
   + 0.3333333333333333 pigjg[203,303,3]
   + 0.3333333333333333 pigjg[303,101,3]
   + 0.3333333333333333 pigjg[303,102,3]
   + 0.3333333333333333 pigjg[303,203,3] - zetat[2]
   + 0.8953588999703285 pig[101,3] + 1.629567242678667 pig[102,3]
   + 1.220963874863748 pig[203,3] + 1.238385630399484 pig[303,3] <= 100000
 R2466: 100000 uigtd[101,3,2,1] + 100000 uigtd[102,3,2,1]
   + 100000 uigtd[203,3,2,1] + 100000 uigtd[303,3,2,1]
   + 0.3333333333333333 pLigtd[101,3,2,1]
   + 0.3333333333333333 pLigtd[102,3,2,1]
   + 0.3333333333333333 pLigtd[203,3,2,1]
   + 0.3333333333333333 pLigtd[303,3,2,1]
   + 0.3333333333333333 pRigtd[101,3,2,1]
   + 0.3333333333333333 pRigtd[102,3,2,1]
   + 0.3333333333333333 pRigtd[203,3,2,1]
   + 0.3333333333333333 pRigtd[303,3,2,1]
   + 0.3333333333333333 pigjg[101,102,3]
   + 0.3333333333333333 pigjg[101,203,3]
   + 0.3333333333333333 pigjg[101,303,3]
   + 0.3333333333333333 pigjg[102,101,3]
   + 0.3333333333333333 pigjg[102,203,3]
   + 0.3333333333333333 pigjg[102,303,3]
   + 0.3333333333333333 pigjg[203,101,3]
   + 0.3333333333333333 pigjg[203,102,3]
   + 0.3333333333333333 pigjg[203,303,3]
   + 0.3333333333333333 pigjg[303,101,3]
   + 0.3333333333333333 pigjg[303,102,3]
   + 0.3333333333333333 pigjg[303,203,3] - zetat[2]
   + 0.8953588999703285 pig[101,3] + 1.629567242678667 pig[102,3]
   + 1.220963874863748 pig[203,3] + 1.238385630399484 pig[303,3] <= 100000
 R2467: 100000 uigtd[101,3,2,2] + 100000 uigtd[102,3,2,2]
   + 100000 uigtd[203,3,2,2] + 100000 uigtd[303,3,2,2]
   + 0.3333333333333333 pLigtd[101,3,2,2]
   + 0.3333333333333333 pLigtd[102,3,2,2]
   + 0.3333333333333333 pLigtd[203,3,2,2]
   + 0.3333333333333333 pLigtd[303,3,2,2]
   + 0.3333333333333333 pRigtd[101,3,2,2]
   + 0.3333333333333333 pRigtd[102,3,2,2]
   + 0.3333333333333333 pRigtd[203,3,2,2]
   + 0.3333333333333333 pRigtd[303,3,2,2]
   + 0.3333333333333333 pigjg[101,102,3]
   + 0.3333333333333333 pigjg[101,203,3]
   + 0.3333333333333333 pigjg[101,303,3]
   + 0.3333333333333333 pigjg[102,101,3]
   + 0.3333333333333333 pigjg[102,203,3]
   + 0.3333333333333333 pigjg[102,303,3]
   + 0.3333333333333333 pigjg[203,101,3]
   + 0.3333333333333333 pigjg[203,102,3]
   + 0.3333333333333333 pigjg[203,303,3]
   + 0.3333333333333333 pigjg[303,101,3]
   + 0.3333333333333333 pigjg[303,102,3]
   + 0.3333333333333333 pigjg[303,203,3] - zetat[2]
   + 0.8953588999703285 pig[101,3] + 1.629567242678667 pig[102,3]
   + 1.220963874863748 pig[203,3] + 1.238385630399484 pig[303,3] <= 100000
 R2474: 100000 uigtd[101,3,3,0] + 100000 uigtd[102,3,3,0]
   + 100000 uigtd[203,3,3,0] + 100000 uigtd[303,3,3,0]
   + 0.3333333333333333 pLigtd[101,3,3,0]
   + 0.3333333333333333 pLigtd[102,3,3,0]
   + 0.3333333333333333 pLigtd[203,3,3,0]
   + 0.3333333333333333 pLigtd[303,3,3,0]
   + 0.3333333333333333 pRigtd[101,3,3,0]
   + 0.3333333333333333 pRigtd[102,3,3,0]
   + 0.3333333333333333 pRigtd[203,3,3,0]
   + 0.3333333333333333 pRigtd[303,3,3,0]
   + 0.3333333333333333 pigjg[101,102,3]
   + 0.3333333333333333 pigjg[101,203,3]
   + 0.3333333333333333 pigjg[101,303,3]
   + 0.3333333333333333 pigjg[102,101,3]
   + 0.3333333333333333 pigjg[102,203,3]
   + 0.3333333333333333 pigjg[102,303,3]
   + 0.3333333333333333 pigjg[203,101,3]
   + 0.3333333333333333 pigjg[203,102,3]
   + 0.3333333333333333 pigjg[203,303,3]
   + 0.3333333333333333 pigjg[303,101,3]
   + 0.3333333333333333 pigjg[303,102,3]
   + 0.3333333333333333 pigjg[303,203,3] - zetat[3]
   + 0.8953588999703285 pig[101,3] + 1.629567242678667 pig[102,3]
   + 1.220963874863748 pig[203,3] + 1.238385630399484 pig[303,3] <= 100000
 R2475: 100000 uigtd[101,3,3,1] + 100000 uigtd[102,3,3,1]
   + 100000 uigtd[203,3,3,1] + 100000 uigtd[303,3,3,1]
   + 0.3333333333333333 pLigtd[101,3,3,1]
   + 0.3333333333333333 pLigtd[102,3,3,1]
   + 0.3333333333333333 pLigtd[203,3,3,1]
   + 0.3333333333333333 pLigtd[303,3,3,1]
   + 0.3333333333333333 pRigtd[101,3,3,1]
   + 0.3333333333333333 pRigtd[102,3,3,1]
   + 0.3333333333333333 pRigtd[203,3,3,1]
   + 0.3333333333333333 pRigtd[303,3,3,1]
   + 0.3333333333333333 pigjg[101,102,3]
   + 0.3333333333333333 pigjg[101,203,3]
   + 0.3333333333333333 pigjg[101,303,3]
   + 0.3333333333333333 pigjg[102,101,3]
   + 0.3333333333333333 pigjg[102,203,3]
   + 0.3333333333333333 pigjg[102,303,3]
   + 0.3333333333333333 pigjg[203,101,3]
   + 0.3333333333333333 pigjg[203,102,3]
   + 0.3333333333333333 pigjg[203,303,3]
   + 0.3333333333333333 pigjg[303,101,3]
   + 0.3333333333333333 pigjg[303,102,3]
   + 0.3333333333333333 pigjg[303,203,3] - zetat[3]
   + 0.8953588999703285 pig[101,3] + 1.629567242678667 pig[102,3]
   + 1.220963874863748 pig[203,3] + 1.238385630399484 pig[303,3] <= 100000
 R2476: 100000 uigtd[101,3,3,2] + 100000 uigtd[102,3,3,2]
   + 100000 uigtd[203,3,3,2] + 100000 uigtd[303,3,3,2]
   + 0.3333333333333333 pLigtd[101,3,3,2]
   + 0.3333333333333333 pLigtd[102,3,3,2]
   + 0.3333333333333333 pLigtd[203,3,3,2]
   + 0.3333333333333333 pLigtd[303,3,3,2]
   + 0.3333333333333333 pRigtd[101,3,3,2]
   + 0.3333333333333333 pRigtd[102,3,3,2]
   + 0.3333333333333333 pRigtd[203,3,3,2]
   + 0.3333333333333333 pRigtd[303,3,3,2]
   + 0.3333333333333333 pigjg[101,102,3]
   + 0.3333333333333333 pigjg[101,203,3]
   + 0.3333333333333333 pigjg[101,303,3]
   + 0.3333333333333333 pigjg[102,101,3]
   + 0.3333333333333333 pigjg[102,203,3]
   + 0.3333333333333333 pigjg[102,303,3]
   + 0.3333333333333333 pigjg[203,101,3]
   + 0.3333333333333333 pigjg[203,102,3]
   + 0.3333333333333333 pigjg[203,303,3]
   + 0.3333333333333333 pigjg[303,101,3]
   + 0.3333333333333333 pigjg[303,102,3]
   + 0.3333333333333333 pigjg[303,203,3] - zetat[3]
   + 0.8953588999703285 pig[101,3] + 1.629567242678667 pig[102,3]
   + 1.220963874863748 pig[203,3] + 1.238385630399484 pig[303,3] <= 100000
 R2477: zetat[1] <= 0
 R2478: zetat[2] <= 0
 R2479: zetat[3] <= 0
 R2563: pig[102,3] >= 0.054390967117953
Bounds
 zetat[1] free
 zetat[2] free
 zetat[3] free
 pig[102,3] free
Binaries
 uigtd[101,3,1,0] uigtd[101,3,1,1] uigtd[101,3,1,2] uigtd[101,3,2,0]
 uigtd[101,3,2,1] uigtd[101,3,2,2] uigtd[101,3,3,0] uigtd[101,3,3,1]
 uigtd[101,3,3,2] uigtd[102,3,1,0] uigtd[102,3,1,1] uigtd[102,3,1,2]
 uigtd[102,3,2,0] uigtd[102,3,2,1] uigtd[102,3,2,2] uigtd[102,3,3,0]
 uigtd[102,3,3,1] uigtd[102,3,3,2] uigtd[203,3,1,0] uigtd[203,3,1,1]
 uigtd[203,3,1,2] uigtd[203,3,2,0] uigtd[203,3,2,1] uigtd[203,3,2,2]
 uigtd[203,3,3,0] uigtd[203,3,3,1] uigtd[203,3,3,2] uigtd[303,3,1,0]
 uigtd[303,3,1,1] uigtd[303,3,1,2] uigtd[303,3,2,0] uigtd[303,3,2,1]
 uigtd[303,3,2,2] uigtd[303,3,3,0] uigtd[303,3,3,1] uigtd[303,3,3,2]
End
